NAME: random-76-17708
TYPE: TSP
COMMENT: size=76 seed=17708
DIMENSION: 154
EDGE_WEIGHT_TYPE: EUC_2D
NODE_COORD_SECTION
+0 356 429
-0 356 429
+1 642 157
-1 201 37
+2 368 475
-2 743 361
+3 378 772
-3 734 911
+4 568 140
-4 237 895
+5 900 485
-5 409 184
+6 479 54
-6 776 211
+7 926 28
-7 683 249
+8 887 556
-8 482 800
+9 438 574
-9 729 825
+10 658 623
-10 232 908
+11 941 771
-11 376 526
+12 989 387
-12 977 351
+13 394 756
-13 377 564
+14 887 703
-14 540 740
+15 883 230
-15 818 89
+16 371 615
-16 52 782
+17 823 229
-17 682 654
+18 398 97
-18 560 384
+19 290 246
-19 752 866
+20 694 859
-20 172 131
+21 58 951
-21 401 317
+22 702 86
-22 641 756
+23 435 873
-23 267 668
+24 769 649
-24 561 267
+25 150 681
-25 673 645
+26 862 530
-26 93 581
+27 944 963
-27 873 798
+28 920 769
-28 172 214
+29 173 243
-29 912 773
+30 763 642
-30 261 272
+31 335 201
-31 628 784
+32 907 662
-32 154 158
+33 742 161
-33 732 613
+34 757 132
-34 209 377
+35 217 402
-35 848 275
+36 564 334
-36 503 791
+37 972 698
-37 777 91
+38 803 413
-38 941 363
+39 391 876
-39 211 868
+40 48 156
-40 833 607
+41 710 550
-41 616 994
+42 762 617
-42 27 51
+43 100 320
-43 626 277
+44 193 948
-44 488 362
+45 297 813
-45 948 406
+46 143 863
-46 170 115
+47 521 492
-47 737 871
+48 123 201
-48 52 377
+49 374 800
-49 719 475
+50 352 62
-50 584 68
+51 58 439
-51 776 841
+52 995 919
-52 360 542
+53 676 146
-53 72 604
+54 251 299
-54 90 814
+55 397 32
-55 472 770
+56 485 86
-56 311 529
+57 797 651
-57 925 760
+58 648 464
-58 362 819
+59 204 614
-59 914 341
+60 417 598
-60 827 500
+61 302 401
-61 884 624
+62 184 990
-62 82 999
+63 46 163
-63 711 233
+64 729 551
-64 750 195
+65 861 622
-65 294 231
+66 116 128
-66 690 773
+67 351 265
-67 16 687
+68 359 999
-68 680 913
+69 652 72
-69 840 788
+70 210 296
-70 20 359
+71 145 543
-71 432 670
+72 250 488
-72 776 261
+73 906 173
-73 484 803
+74 689 343
-74 312 377
+75 661 141
-75 855 376
+76 847 681
-76 667 112
PRECEDENCE_SECTION
+0 -0
+1 -1
+2 -2
+3 -3
+4 -4
+5 -5
+6 -6
+7 -7
+8 -8
+9 -9
+10 -10
+11 -11
+12 -12
+13 -13
+14 -14
+15 -15
+16 -16
+17 -17
+18 -18
+19 -19
+20 -20
+21 -21
+22 -22
+23 -23
+24 -24
+25 -25
+26 -26
+27 -27
+28 -28
+29 -29
+30 -30
+31 -31
+32 -32
+33 -33
+34 -34
+35 -35
+36 -36
+37 -37
+38 -38
+39 -39
+40 -40
+41 -41
+42 -42
+43 -43
+44 -44
+45 -45
+46 -46
+47 -47
+48 -48
+49 -49
+50 -50
+51 -51
+52 -52
+53 -53
+54 -54
+55 -55
+56 -56
+57 -57
+58 -58
+59 -59
+60 -60
+61 -61
+62 -62
+63 -63
+64 -64
+65 -65
+66 -66
+67 -67
+68 -68
+69 -69
+70 -70
+71 -71
+72 -72
+73 -73
+74 -74
+75 -75
+76 -76
EOF
